c nIsolatedPIs 3
c maxPI 132
p cnf 726 1783
c gate 133 27 127 0
27 -133 0
127 -133 0
-27 -127 133 0
c gate 134 29 -127 0
29 -134 0
-127 -134 0
-29 127 134 0
c gate 135 126 -134 0
126 -135 0
-134 -135 0
-126 134 135 0
c gate 136 -133 135 0
-133 -136 0
135 -136 0
133 -135 136 0
c gate 137 28 127 0
28 -137 0
127 -137 0
-28 -127 137 0
c gate 138 30 -127 0
30 -138 0
-127 -138 0
-30 127 138 0
c gate 139 -126 -138 0
-126 -139 0
-138 -139 0
126 138 139 0
c gate 140 -137 139 0
-137 -140 0
139 -140 0
137 -139 140 0
c gate 141 -136 -140 0
-136 -141 0
-140 -141 0
136 140 141 0
c gate 142 129 141 0
129 -142 0
141 -142 0
-129 -141 142 0
c gate 143 -35 127 0
-35 -143 0
127 -143 0
35 -127 143 0
c gate 144 -37 -127 0
-37 -144 0
-127 -144 0
37 127 144 0
c gate 145 126 -144 0
126 -145 0
-144 -145 0
-126 144 145 0
c gate 146 -143 145 0
-143 -146 0
145 -146 0
143 -145 146 0
c gate 147 -36 127 0
-36 -147 0
127 -147 0
36 -127 147 0
c gate 148 -38 -127 0
-38 -148 0
-127 -148 0
38 127 148 0
c gate 149 -126 -148 0
-126 -149 0
-148 -149 0
126 148 149 0
c gate 150 -147 149 0
-147 -150 0
149 -150 0
147 -149 150 0
c gate 151 -146 -150 0
-146 -151 0
-150 -151 0
146 150 151 0
c gate 152 -129 -151 0
-129 -152 0
-151 -152 0
129 151 152 0
c gate 153 -128 -152 0
-128 -153 0
-152 -153 0
128 152 153 0
c gate 154 -142 153 0
-142 -154 0
153 -154 0
142 -153 154 0
c gate 155 24 127 0
24 -155 0
127 -155 0
-24 -127 155 0
c gate 156 26 -127 0
26 -156 0
-127 -156 0
-26 127 156 0
c gate 157 -126 -156 0
-126 -157 0
-156 -157 0
126 156 157 0
c gate 158 -155 157 0
-155 -158 0
157 -158 0
155 -157 158 0
c gate 159 23 127 0
23 -159 0
127 -159 0
-23 -127 159 0
c gate 160 25 -127 0
25 -160 0
-127 -160 0
-25 127 160 0
c gate 161 126 -160 0
126 -161 0
-160 -161 0
-126 160 161 0
c gate 162 -159 161 0
-159 -162 0
161 -162 0
159 -161 162 0
c gate 163 -158 -162 0
-158 -163 0
-162 -163 0
158 162 163 0
c gate 164 129 -163 0
129 -164 0
-163 -164 0
-129 163 164 0
c gate 165 32 127 0
32 -165 0
127 -165 0
-32 -127 165 0
c gate 166 34 -127 0
34 -166 0
-127 -166 0
-34 127 166 0
c gate 167 -126 -166 0
-126 -167 0
-166 -167 0
126 166 167 0
c gate 168 -165 167 0
-165 -168 0
167 -168 0
165 -167 168 0
c gate 169 31 127 0
31 -169 0
127 -169 0
-31 -127 169 0
c gate 170 33 -127 0
33 -170 0
-127 -170 0
-33 127 170 0
c gate 171 126 -170 0
126 -171 0
-170 -171 0
-126 170 171 0
c gate 172 -169 171 0
-169 -172 0
171 -172 0
169 -171 172 0
c gate 173 -168 -172 0
-168 -173 0
-172 -173 0
168 172 173 0
c gate 174 -129 -173 0
-129 -174 0
-173 -174 0
129 173 174 0
c gate 175 -164 -174 0
-164 -175 0
-174 -175 0
164 174 175 0
c gate 176 128 -175 0
128 -176 0
-175 -176 0
-128 175 176 0
c gate 177 -131 -176 0
-131 -177 0
-176 -177 0
131 176 177 0
c gate 178 -154 177 0
-154 -178 0
177 -178 0
154 -177 178 0
c gate 179 -3 -127 0
-3 -179 0
-127 -179 0
3 127 179 0
c gate 180 -1 127 0
-1 -180 0
127 -180 0
1 -127 180 0
c gate 181 -179 -180 0
-179 -181 0
-180 -181 0
179 180 181 0
c gate 182 126 181 0
126 -182 0
181 -182 0
-126 -181 182 0
c gate 183 -4 -127 0
-4 -183 0
-127 -183 0
4 127 183 0
c gate 184 -2 127 0
-2 -184 0
127 -184 0
2 -127 184 0
c gate 185 -126 -184 0
-126 -185 0
-184 -185 0
126 184 185 0
c gate 186 -183 185 0
-183 -186 0
185 -186 0
183 -185 186 0
c gate 187 -129 -186 0
-129 -187 0
-186 -187 0
129 186 187 0
c gate 188 -182 187 0
-182 -188 0
187 -188 0
182 -187 188 0
c gate 189 -120 -127 0
-120 -189 0
-127 -189 0
120 127 189 0
c gate 190 -118 127 0
-118 -190 0
127 -190 0
118 -127 190 0
c gate 191 -189 -190 0
-189 -191 0
-190 -191 0
189 190 191 0
c gate 192 126 191 0
126 -192 0
191 -192 0
-126 -191 192 0
c gate 193 -121 -127 0
-121 -193 0
-127 -193 0
121 127 193 0
c gate 194 -119 127 0
-119 -194 0
127 -194 0
119 -127 194 0
c gate 195 -126 -194 0
-126 -195 0
-194 -195 0
126 194 195 0
c gate 196 -193 195 0
-193 -196 0
195 -196 0
193 -195 196 0
c gate 197 129 -196 0
129 -197 0
-196 -197 0
-129 196 197 0
c gate 198 -192 197 0
-192 -198 0
197 -198 0
192 -197 198 0
c gate 199 -188 -198 0
-188 -199 0
-198 -199 0
188 198 199 0
c gate 200 128 -199 0
128 -200 0
-199 -200 0
-128 199 200 0
c gate 201 6 127 0
6 -201 0
127 -201 0
-6 -127 201 0
c gate 202 8 -127 0
8 -202 0
-127 -202 0
-8 127 202 0
c gate 203 -126 -202 0
-126 -203 0
-202 -203 0
126 202 203 0
c gate 204 -201 203 0
-201 -204 0
203 -204 0
201 -203 204 0
c gate 205 5 127 0
5 -205 0
127 -205 0
-5 -127 205 0
c gate 206 7 -127 0
7 -206 0
-127 -206 0
-7 127 206 0
c gate 207 126 -206 0
126 -207 0
-206 -207 0
-126 206 207 0
c gate 208 -205 207 0
-205 -208 0
207 -208 0
205 -207 208 0
c gate 209 -204 -208 0
-204 -209 0
-208 -209 0
204 208 209 0
c gate 210 -129 -209 0
-129 -210 0
-209 -210 0
129 209 210 0
c gate 211 125 -127 0
125 -211 0
-127 -211 0
-125 127 211 0
c gate 212 123 127 0
123 -212 0
127 -212 0
-123 -127 212 0
c gate 213 -211 -212 0
-211 -213 0
-212 -213 0
211 212 213 0
c gate 214 -126 -213 0
-126 -214 0
-213 -214 0
126 213 214 0
c gate 215 -124 -127 0
-124 -215 0
-127 -215 0
124 127 215 0
c gate 216 -122 127 0
-122 -216 0
127 -216 0
122 -127 216 0
c gate 217 -215 -216 0
-215 -217 0
-216 -217 0
215 216 217 0
c gate 218 126 217 0
126 -218 0
217 -218 0
-126 -217 218 0
c gate 219 129 -218 0
129 -219 0
-218 -219 0
-129 218 219 0
c gate 220 -214 219 0
-214 -220 0
219 -220 0
214 -219 220 0
c gate 221 -210 -220 0
-210 -221 0
-220 -221 0
210 220 221 0
c gate 222 -128 -221 0
-128 -222 0
-221 -222 0
128 221 222 0
c gate 223 -200 -222 0
-200 -223 0
-222 -223 0
200 222 223 0
c gate 224 131 223 0
131 -224 0
223 -224 0
-131 -223 224 0
c gate 225 130 -224 0
130 -225 0
-224 -225 0
-130 224 225 0
c gate 226 -178 225 0
-178 -226 0
225 -226 0
178 -225 226 0
c gate 227 132 226 0
132 -227 0
226 -227 0
-132 -226 227 0
c gate 228 -38 127 0
-38 -228 0
127 -228 0
38 -127 228 0
c gate 229 -40 -127 0
-40 -229 0
-127 -229 0
40 127 229 0
c gate 230 -126 -229 0
-126 -230 0
-229 -230 0
126 229 230 0
c gate 231 -228 230 0
-228 -231 0
230 -231 0
228 -230 231 0
c gate 232 -37 127 0
-37 -232 0
127 -232 0
37 -127 232 0
c gate 233 -39 -127 0
-39 -233 0
-127 -233 0
39 127 233 0
c gate 234 126 -233 0
126 -234 0
-233 -234 0
-126 233 234 0
c gate 235 -232 234 0
-232 -235 0
234 -235 0
232 -234 235 0
c gate 236 129 -235 0
129 -236 0
-235 -236 0
-129 235 236 0
c gate 237 -231 236 0
-231 -237 0
236 -237 0
231 -236 237 0
c gate 238 -45 127 0
-45 -238 0
127 -238 0
45 -127 238 0
c gate 239 -47 -127 0
-47 -239 0
-127 -239 0
47 127 239 0
c gate 240 126 -239 0
126 -240 0
-239 -240 0
-126 239 240 0
c gate 241 -238 240 0
-238 -241 0
240 -241 0
238 -240 241 0
c gate 242 -46 127 0
-46 -242 0
127 -242 0
46 -127 242 0
c gate 243 -48 -127 0
-48 -243 0
-127 -243 0
48 127 243 0
c gate 244 -126 -243 0
-126 -244 0
-243 -244 0
126 243 244 0
c gate 245 -242 244 0
-242 -245 0
244 -245 0
242 -244 245 0
c gate 246 -241 -245 0
-241 -246 0
-245 -246 0
241 245 246 0
c gate 247 -129 246 0
-129 -247 0
246 -247 0
129 -246 247 0
c gate 248 -128 -247 0
-128 -248 0
-247 -248 0
128 247 248 0
c gate 249 -237 248 0
-237 -249 0
248 -249 0
237 -248 249 0
c gate 250 -34 127 0
-34 -250 0
127 -250 0
34 -127 250 0
c gate 251 -36 -127 0
-36 -251 0
-127 -251 0
36 127 251 0
c gate 252 -126 -251 0
-126 -252 0
-251 -252 0
126 251 252 0
c gate 253 -250 252 0
-250 -253 0
252 -253 0
250 -252 253 0
c gate 254 -33 127 0
-33 -254 0
127 -254 0
33 -127 254 0
c gate 255 -35 -127 0
-35 -255 0
-127 -255 0
35 127 255 0
c gate 256 126 -255 0
126 -256 0
-255 -256 0
-126 255 256 0
c gate 257 -254 256 0
-254 -257 0
256 -257 0
254 -256 257 0
c gate 258 129 -257 0
129 -258 0
-257 -258 0
-129 257 258 0
c gate 259 -253 258 0
-253 -259 0
258 -259 0
253 -258 259 0
c gate 260 -41 127 0
-41 -260 0
127 -260 0
41 -127 260 0
c gate 261 -43 -127 0
-43 -261 0
-127 -261 0
43 127 261 0
c gate 262 126 -261 0
126 -262 0
-261 -262 0
-126 261 262 0
c gate 263 -260 262 0
-260 -263 0
262 -263 0
260 -262 263 0
c gate 264 -42 127 0
-42 -264 0
127 -264 0
42 -127 264 0
c gate 265 -44 -127 0
-44 -265 0
-127 -265 0
44 127 265 0
c gate 266 -126 -265 0
-126 -266 0
-265 -266 0
126 265 266 0
c gate 267 -264 266 0
-264 -267 0
266 -267 0
264 -266 267 0
c gate 268 -263 -267 0
-263 -268 0
-267 -268 0
263 267 268 0
c gate 269 -129 268 0
-129 -269 0
268 -269 0
129 -268 269 0
c gate 270 128 -269 0
128 -270 0
-269 -270 0
-128 269 270 0
c gate 271 -259 270 0
-259 -271 0
270 -271 0
259 -270 271 0
c gate 272 -249 -271 0
-249 -272 0
-271 -272 0
249 271 272 0
c gate 273 131 -272 0
131 -273 0
-272 -273 0
-131 272 273 0
c gate 274 -67 -127 0
-67 -274 0
-127 -274 0
67 127 274 0
c gate 275 -65 127 0
-65 -275 0
127 -275 0
65 -127 275 0
c gate 276 -274 -275 0
-274 -276 0
-275 -276 0
274 275 276 0
c gate 277 126 276 0
126 -277 0
276 -277 0
-126 -276 277 0
c gate 278 -66 127 0
-66 -278 0
127 -278 0
66 -127 278 0
c gate 279 -68 -127 0
-68 -279 0
-127 -279 0
68 127 279 0
c gate 280 -126 -279 0
-126 -280 0
-279 -280 0
126 279 280 0
c gate 281 -278 280 0
-278 -281 0
280 -281 0
278 -280 281 0
c gate 282 129 -281 0
129 -282 0
-281 -282 0
-129 281 282 0
c gate 283 -277 282 0
-277 -283 0
282 -283 0
277 -282 283 0
c gate 284 -75 -127 0
-75 -284 0
-127 -284 0
75 127 284 0
c gate 285 -73 127 0
-73 -285 0
127 -285 0
73 -127 285 0
c gate 286 -284 -285 0
-284 -286 0
-285 -286 0
284 285 286 0
c gate 287 126 286 0
126 -287 0
286 -287 0
-126 -286 287 0
c gate 288 -74 127 0
-74 -288 0
127 -288 0
74 -127 288 0
c gate 289 -76 -127 0
-76 -289 0
-127 -289 0
76 127 289 0
c gate 290 -126 -289 0
-126 -290 0
-289 -290 0
126 289 290 0
c gate 291 -288 290 0
-288 -291 0
290 -291 0
288 -290 291 0
c gate 292 -129 -291 0
-129 -292 0
-291 -292 0
129 291 292 0
c gate 293 -287 292 0
-287 -293 0
292 -293 0
287 -292 293 0
c gate 294 -283 -293 0
-283 -294 0
-293 -294 0
283 293 294 0
c gate 295 128 -294 0
128 -295 0
-294 -295 0
-128 294 295 0
c gate 296 -79 -127 0
-79 -296 0
-127 -296 0
79 127 296 0
c gate 297 -77 127 0
-77 -297 0
127 -297 0
77 -127 297 0
c gate 298 -296 -297 0
-296 -298 0
-297 -298 0
296 297 298 0
c gate 299 126 298 0
126 -299 0
298 -299 0
-126 -298 299 0
c gate 300 -78 127 0
-78 -300 0
127 -300 0
78 -127 300 0
c gate 301 -80 -127 0
-80 -301 0
-127 -301 0
80 127 301 0
c gate 302 -126 -301 0
-126 -302 0
-301 -302 0
126 301 302 0
c gate 303 -300 302 0
-300 -303 0
302 -303 0
300 -302 303 0
c gate 304 -129 -303 0
-129 -304 0
-303 -304 0
129 303 304 0
c gate 305 -299 304 0
-299 -305 0
304 -305 0
299 -304 305 0
c gate 306 -71 -127 0
-71 -306 0
-127 -306 0
71 127 306 0
c gate 307 -69 127 0
-69 -307 0
127 -307 0
69 -127 307 0
c gate 308 -306 -307 0
-306 -308 0
-307 -308 0
306 307 308 0
c gate 309 126 308 0
126 -309 0
308 -309 0
-126 -308 309 0
c gate 310 -70 127 0
-70 -310 0
127 -310 0
70 -127 310 0
c gate 311 -72 -127 0
-72 -311 0
-127 -311 0
72 127 311 0
c gate 312 -126 -311 0
-126 -312 0
-311 -312 0
126 311 312 0
c gate 313 -310 312 0
-310 -313 0
312 -313 0
310 -312 313 0
c gate 314 129 -313 0
129 -314 0
-313 -314 0
-129 313 314 0
c gate 315 -309 314 0
-309 -315 0
314 -315 0
309 -314 315 0
c gate 316 -305 -315 0
-305 -316 0
-315 -316 0
305 315 316 0
c gate 317 -128 -316 0
-128 -317 0
-316 -317 0
128 316 317 0
c gate 318 -131 -317 0
-131 -318 0
-317 -318 0
131 317 318 0
c gate 319 -295 318 0
-295 -319 0
318 -319 0
295 -318 319 0
c gate 320 -273 -319 0
-273 -320 0
-319 -320 0
273 319 320 0
c gate 321 130 -320 0
130 -321 0
-320 -321 0
-130 320 321 0
c gate 322 -132 321 0
-132 -322 0
321 -322 0
132 -321 322 0
c gate 323 -88 -127 0
-88 -323 0
-127 -323 0
88 127 323 0
c gate 324 -86 127 0
-86 -324 0
127 -324 0
86 -127 324 0
c gate 325 -323 -324 0
-323 -325 0
-324 -325 0
323 324 325 0
c gate 326 126 325 0
126 -326 0
325 -326 0
-126 -325 326 0
c gate 327 -89 -127 0
-89 -327 0
-127 -327 0
89 127 327 0
c gate 328 -87 127 0
-87 -328 0
127 -328 0
87 -127 328 0
c gate 329 -126 -328 0
-126 -329 0
-328 -329 0
126 328 329 0
c gate 330 -327 329 0
-327 -330 0
329 -330 0
327 -329 330 0
c gate 331 129 -330 0
129 -331 0
-330 -331 0
-129 330 331 0
c gate 332 -326 331 0
-326 -332 0
331 -332 0
326 -331 332 0
c gate 333 -96 -127 0
-96 -333 0
-127 -333 0
96 127 333 0
c gate 334 -94 127 0
-94 -334 0
127 -334 0
94 -127 334 0
c gate 335 -333 -334 0
-333 -335 0
-334 -335 0
333 334 335 0
c gate 336 126 335 0
126 -336 0
335 -336 0
-126 -335 336 0
c gate 337 -95 127 0
-95 -337 0
127 -337 0
95 -127 337 0
c gate 338 -97 -127 0
-97 -338 0
-127 -338 0
97 127 338 0
c gate 339 -337 -338 0
-337 -339 0
-338 -339 0
337 338 339 0
c gate 340 -126 339 0
-126 -340 0
339 -340 0
126 -339 340 0
c gate 341 -129 -340 0
-129 -341 0
-340 -341 0
129 340 341 0
c gate 342 -336 341 0
-336 -342 0
341 -342 0
336 -341 342 0
c gate 343 -332 -342 0
-332 -343 0
-342 -343 0
332 342 343 0
c gate 344 128 -343 0
128 -344 0
-343 -344 0
-128 343 344 0
c gate 345 -98 127 0
-98 -345 0
127 -345 0
98 -127 345 0
c gate 346 -100 -127 0
-100 -346 0
-127 -346 0
100 127 346 0
c gate 347 126 -346 0
126 -347 0
-346 -347 0
-126 346 347 0
c gate 348 -345 347 0
-345 -348 0
347 -348 0
345 -347 348 0
c gate 349 -99 127 0
-99 -349 0
127 -349 0
99 -127 349 0
c gate 350 -101 -127 0
-101 -350 0
-127 -350 0
101 127 350 0
c gate 351 -349 -350 0
-349 -351 0
-350 -351 0
349 350 351 0
c gate 352 -126 351 0
-126 -352 0
351 -352 0
126 -351 352 0
c gate 353 -129 -352 0
-129 -353 0
-352 -353 0
129 352 353 0
c gate 354 -348 353 0
-348 -354 0
353 -354 0
348 -353 354 0
c gate 355 -92 -127 0
-92 -355 0
-127 -355 0
92 127 355 0
c gate 356 -90 127 0
-90 -356 0
127 -356 0
90 -127 356 0
c gate 357 -355 -356 0
-355 -357 0
-356 -357 0
355 356 357 0
c gate 358 126 357 0
126 -358 0
357 -358 0
-126 -357 358 0
c gate 359 -93 -127 0
-93 -359 0
-127 -359 0
93 127 359 0
c gate 360 -91 127 0
-91 -360 0
127 -360 0
91 -127 360 0
c gate 361 -126 -360 0
-126 -361 0
-360 -361 0
126 360 361 0
c gate 362 -359 361 0
-359 -362 0
361 -362 0
359 -361 362 0
c gate 363 129 -362 0
129 -363 0
-362 -363 0
-129 362 363 0
c gate 364 -358 363 0
-358 -364 0
363 -364 0
358 -363 364 0
c gate 365 -354 -364 0
-354 -365 0
-364 -365 0
354 364 365 0
c gate 366 -128 -365 0
-128 -366 0
-365 -366 0
128 365 366 0
c gate 367 131 -366 0
131 -367 0
-366 -367 0
-131 366 367 0
c gate 368 -344 367 0
-344 -368 0
367 -368 0
344 -367 368 0
c gate 369 -131 223 0
-131 -369 0
223 -369 0
131 -223 369 0
c gate 370 130 -369 0
130 -370 0
-369 -370 0
-130 369 370 0
c gate 371 -368 370 0
-368 -371 0
370 -371 0
368 -370 371 0
c gate 372 132 371 0
132 -372 0
371 -372 0
-132 -371 372 0
c gate 373 -87 -127 0
-87 -373 0
-127 -373 0
87 127 373 0
c gate 374 -85 127 0
-85 -374 0
127 -374 0
85 -127 374 0
c gate 375 126 -374 0
126 -375 0
-374 -375 0
-126 374 375 0
c gate 376 -373 375 0
-373 -376 0
375 -376 0
373 -375 376 0
c gate 377 -126 325 0
-126 -377 0
325 -377 0
126 -325 377 0
c gate 378 129 -377 0
129 -378 0
-377 -378 0
-129 377 378 0
c gate 379 -376 378 0
-376 -379 0
378 -379 0
376 -378 379 0
c gate 380 -95 -127 0
-95 -380 0
-127 -380 0
95 127 380 0
c gate 381 -93 127 0
-93 -381 0
127 -381 0
93 -127 381 0
c gate 382 126 -381 0
126 -382 0
-381 -382 0
-126 381 382 0
c gate 383 -380 382 0
-380 -383 0
382 -383 0
380 -382 383 0
c gate 384 -126 335 0
-126 -384 0
335 -384 0
126 -335 384 0
c gate 385 -129 -384 0
-129 -385 0
-384 -385 0
129 384 385 0
c gate 386 -383 385 0
-383 -386 0
385 -386 0
383 -385 386 0
c gate 387 -128 -386 0
-128 -387 0
-386 -387 0
128 386 387 0
c gate 388 -379 387 0
-379 -388 0
387 -388 0
379 -387 388 0
c gate 389 -91 -127 0
-91 -389 0
-127 -389 0
91 127 389 0
c gate 390 -89 127 0
-89 -390 0
127 -390 0
89 -127 390 0
c gate 391 126 -390 0
126 -391 0
-390 -391 0
-126 390 391 0
c gate 392 -389 391 0
-389 -392 0
391 -392 0
389 -391 392 0
c gate 393 -126 357 0
-126 -393 0
357 -393 0
126 -357 393 0
c gate 394 -129 -393 0
-129 -394 0
-393 -394 0
129 393 394 0
c gate 395 -392 394 0
-392 -395 0
394 -395 0
392 -394 395 0
c gate 396 -82 127 0
-82 -396 0
127 -396 0
82 -127 396 0
c gate 397 -84 -127 0
-84 -397 0
-127 -397 0
84 127 397 0
c gate 398 -126 -397 0
-126 -398 0
-397 -398 0
126 397 398 0
c gate 399 -396 398 0
-396 -399 0
398 -399 0
396 -398 399 0
c gate 400 -81 127 0
-81 -400 0
127 -400 0
81 -127 400 0
c gate 401 -83 -127 0
-83 -401 0
-127 -401 0
83 127 401 0
c gate 402 126 -401 0
126 -402 0
-401 -402 0
-126 401 402 0
c gate 403 -400 402 0
-400 -403 0
402 -403 0
400 -402 403 0
c gate 404 129 -403 0
129 -404 0
-403 -404 0
-129 403 404 0
c gate 405 -399 404 0
-399 -405 0
404 -405 0
399 -404 405 0
c gate 406 128 -405 0
128 -406 0
-405 -406 0
-128 405 406 0
c gate 407 -395 406 0
-395 -407 0
406 -407 0
395 -406 407 0
c gate 408 -388 -407 0
-388 -408 0
-407 -408 0
388 407 408 0
c gate 409 131 -408 0
131 -409 0
-408 -409 0
-131 408 409 0
c gate 410 -114 127 0
-114 -410 0
127 -410 0
114 -127 410 0
c gate 411 -116 -127 0
-116 -411 0
-127 -411 0
116 127 411 0
c gate 412 -126 -411 0
-126 -412 0
-411 -412 0
126 411 412 0
c gate 413 -410 412 0
-410 -413 0
412 -413 0
410 -412 413 0
c gate 414 115 -127 0
115 -414 0
-127 -414 0
-115 127 414 0
c gate 415 113 127 0
113 -415 0
127 -415 0
-113 -127 415 0
c gate 416 -414 -415 0
-414 -416 0
-415 -416 0
414 415 416 0
c gate 417 126 -416 0
126 -417 0
-416 -417 0
-126 416 417 0
c gate 418 129 -417 0
129 -418 0
-417 -418 0
-129 417 418 0
c gate 419 -413 418 0
-413 -419 0
418 -419 0
413 -418 419 0
c gate 420 -123 -127 0
-123 -420 0
-127 -420 0
123 127 420 0
c gate 421 -121 127 0
-121 -421 0
127 -421 0
121 -127 421 0
c gate 422 126 -421 0
126 -422 0
-421 -422 0
-126 421 422 0
c gate 423 -420 422 0
-420 -423 0
422 -423 0
420 -422 423 0
c gate 424 -126 217 0
-126 -424 0
217 -424 0
126 -217 424 0
c gate 425 -129 -424 0
-129 -425 0
-424 -425 0
129 424 425 0
c gate 426 -423 425 0
-423 -426 0
425 -426 0
423 -425 426 0
c gate 427 -419 -426 0
-419 -427 0
-426 -427 0
419 426 427 0
c gate 428 128 -427 0
128 -428 0
-427 -428 0
-128 427 428 0
c gate 429 119 -127 0
119 -429 0
-127 -429 0
-119 127 429 0
c gate 430 117 127 0
117 -430 0
127 -430 0
-117 -127 430 0
c gate 431 -429 -430 0
-429 -431 0
-430 -431 0
429 430 431 0
c gate 432 126 -431 0
126 -432 0
-431 -432 0
-126 431 432 0
c gate 433 -126 191 0
-126 -433 0
191 -433 0
126 -191 433 0
c gate 434 129 -433 0
129 -434 0
-433 -434 0
-129 433 434 0
c gate 435 -432 434 0
-432 -435 0
434 -435 0
432 -434 435 0
c gate 436 -2 -127 0
-2 -436 0
-127 -436 0
2 127 436 0
c gate 437 -125 127 0
-125 -437 0
127 -437 0
125 -127 437 0
c gate 438 126 -437 0
126 -438 0
-437 -438 0
-126 437 438 0
c gate 439 -436 438 0
-436 -439 0
438 -439 0
436 -438 439 0
c gate 440 -126 181 0
-126 -440 0
181 -440 0
126 -181 440 0
c gate 441 -129 -440 0
-129 -441 0
-440 -441 0
129 440 441 0
c gate 442 -439 441 0
-439 -442 0
441 -442 0
439 -441 442 0
c gate 443 -435 -442 0
-435 -443 0
-442 -443 0
435 442 443 0
c gate 444 -128 -443 0
-128 -444 0
-443 -444 0
128 443 444 0
c gate 445 -131 -444 0
-131 -445 0
-444 -445 0
131 444 445 0
c gate 446 -428 445 0
-428 -446 0
445 -446 0
428 -445 446 0
c gate 447 130 -446 0
130 -447 0
-446 -447 0
-130 446 447 0
c gate 448 -409 447 0
-409 -448 0
447 -448 0
409 -447 448 0
c gate 449 132 448 0
132 -449 0
448 -449 0
-132 -448 449 0
c gate 450 12 -127 0
12 -450 0
-127 -450 0
-12 127 450 0
c gate 451 10 127 0
10 -451 0
127 -451 0
-10 -127 451 0
c gate 452 -126 -451 0
-126 -452 0
-451 -452 0
126 451 452 0
c gate 453 -450 452 0
-450 -453 0
452 -453 0
450 -452 453 0
c gate 454 11 -127 0
11 -454 0
-127 -454 0
-11 127 454 0
c gate 455 9 127 0
9 -455 0
127 -455 0
-9 -127 455 0
c gate 456 126 -455 0
126 -456 0
-455 -456 0
-126 455 456 0
c gate 457 -454 456 0
-454 -457 0
456 -457 0
454 -456 457 0
c gate 458 -453 -457 0
-453 -458 0
-457 -458 0
453 457 458 0
c gate 459 129 -458 0
129 -459 0
-458 -459 0
-129 458 459 0
c gate 460 19 -127 0
19 -460 0
-127 -460 0
-19 127 460 0
c gate 461 17 127 0
17 -461 0
127 -461 0
-17 -127 461 0
c gate 462 126 -461 0
126 -462 0
-461 -462 0
-126 461 462 0
c gate 463 -460 462 0
-460 -463 0
462 -463 0
460 -462 463 0
c gate 464 20 -127 0
20 -464 0
-127 -464 0
-20 127 464 0
c gate 465 18 127 0
18 -465 0
127 -465 0
-18 -127 465 0
c gate 466 -126 -465 0
-126 -466 0
-465 -466 0
126 465 466 0
c gate 467 -464 466 0
-464 -467 0
466 -467 0
464 -466 467 0
c gate 468 -463 -467 0
-463 -468 0
-467 -468 0
463 467 468 0
c gate 469 -129 -468 0
-129 -469 0
-468 -469 0
129 468 469 0
c gate 470 128 -469 0
128 -470 0
-469 -470 0
-128 469 470 0
c gate 471 -459 470 0
-459 -471 0
470 -471 0
459 -470 471 0
c gate 472 16 -127 0
16 -472 0
-127 -472 0
-16 127 472 0
c gate 473 14 127 0
14 -473 0
127 -473 0
-14 -127 473 0
c gate 474 -126 -473 0
-126 -474 0
-473 -474 0
126 473 474 0
c gate 475 -472 474 0
-472 -475 0
474 -475 0
472 -474 475 0
c gate 476 15 -127 0
15 -476 0
-127 -476 0
-15 127 476 0
c gate 477 13 127 0
13 -477 0
127 -477 0
-13 -127 477 0
c gate 478 126 -477 0
126 -478 0
-477 -478 0
-126 477 478 0
c gate 479 -476 478 0
-476 -479 0
478 -479 0
476 -478 479 0
c gate 480 -475 -479 0
-475 -480 0
-479 -480 0
475 479 480 0
c gate 481 129 -480 0
129 -481 0
-480 -481 0
-129 480 481 0
c gate 482 23 -127 0
23 -482 0
-127 -482 0
-23 127 482 0
c gate 483 21 127 0
21 -483 0
127 -483 0
-21 -127 483 0
c gate 484 126 -483 0
126 -484 0
-483 -484 0
-126 483 484 0
c gate 485 -482 484 0
-482 -485 0
484 -485 0
482 -484 485 0
c gate 486 24 -127 0
24 -486 0
-127 -486 0
-24 127 486 0
c gate 487 22 127 0
22 -487 0
127 -487 0
-22 -127 487 0
c gate 488 -126 -487 0
-126 -488 0
-487 -488 0
126 487 488 0
c gate 489 -486 488 0
-486 -489 0
488 -489 0
486 -488 489 0
c gate 490 -485 -489 0
-485 -490 0
-489 -490 0
485 489 490 0
c gate 491 -129 -490 0
-129 -491 0
-490 -491 0
129 490 491 0
c gate 492 -128 -491 0
-128 -492 0
-491 -492 0
128 491 492 0
c gate 493 -481 492 0
-481 -493 0
492 -493 0
481 -492 493 0
c gate 494 -471 -493 0
-471 -494 0
-493 -494 0
471 493 494 0
c gate 495 131 494 0
131 -495 0
494 -495 0
-131 -494 495 0
c gate 496 129 268 0
129 -496 0
268 -496 0
-129 -268 496 0
c gate 497 -50 127 0
-50 -497 0
127 -497 0
50 -127 497 0
c gate 498 -52 -127 0
-52 -498 0
-127 -498 0
52 127 498 0
c gate 499 -126 -498 0
-126 -499 0
-498 -499 0
126 498 499 0
c gate 500 -497 499 0
-497 -500 0
499 -500 0
497 -499 500 0
c gate 501 -49 127 0
-49 -501 0
127 -501 0
49 -127 501 0
c gate 502 -51 -127 0
-51 -502 0
-127 -502 0
51 127 502 0
c gate 503 126 -502 0
126 -503 0
-502 -503 0
-126 502 503 0
c gate 504 -501 503 0
-501 -504 0
503 -504 0
501 -503 504 0
c gate 505 -129 -504 0
-129 -505 0
-504 -505 0
129 504 505 0
c gate 506 -500 505 0
-500 -506 0
505 -506 0
500 -505 506 0
c gate 507 128 -506 0
128 -507 0
-506 -507 0
-128 506 507 0
c gate 508 -496 507 0
-496 -508 0
507 -508 0
496 -507 508 0
c gate 509 129 246 0
129 -509 0
246 -509 0
-129 -246 509 0
c gate 510 -54 127 0
-54 -510 0
127 -510 0
54 -127 510 0
c gate 511 -56 -127 0
-56 -511 0
-127 -511 0
56 127 511 0
c gate 512 -126 -511 0
-126 -512 0
-511 -512 0
126 511 512 0
c gate 513 -510 512 0
-510 -513 0
512 -513 0
510 -512 513 0
c gate 514 -53 127 0
-53 -514 0
127 -514 0
53 -127 514 0
c gate 515 -55 -127 0
-55 -515 0
-127 -515 0
55 127 515 0
c gate 516 126 -515 0
126 -516 0
-515 -516 0
-126 515 516 0
c gate 517 -514 516 0
-514 -517 0
516 -517 0
514 -516 517 0
c gate 518 -129 -517 0
-129 -518 0
-517 -518 0
129 517 518 0
c gate 519 -513 518 0
-513 -519 0
518 -519 0
513 -518 519 0
c gate 520 -128 -519 0
-128 -520 0
-519 -520 0
128 519 520 0
c gate 521 -509 520 0
-509 -521 0
520 -521 0
509 -520 521 0
c gate 522 -131 -521 0
-131 -522 0
-521 -522 0
131 521 522 0
c gate 523 -508 522 0
-508 -523 0
522 -523 0
508 -522 523 0
c gate 524 130 -523 0
130 -524 0
-523 -524 0
-130 523 524 0
c gate 525 -495 524 0
-495 -525 0
524 -525 0
495 -524 525 0
c gate 526 -132 525 0
-132 -526 0
525 -526 0
132 -525 526 0
c gate 527 132 321 0
132 -527 0
321 -527 0
-132 -321 527 0
c gate 528 132 525 0
132 -528 0
525 -528 0
-132 -525 528 0
c gate 529 -56 127 0
-56 -529 0
127 -529 0
56 -127 529 0
c gate 530 -58 -127 0
-58 -530 0
-127 -530 0
58 127 530 0
c gate 531 -126 -530 0
-126 -531 0
-530 -531 0
126 530 531 0
c gate 532 -529 531 0
-529 -532 0
531 -532 0
529 -531 532 0
c gate 533 -55 127 0
-55 -533 0
127 -533 0
55 -127 533 0
c gate 534 -57 -127 0
-57 -534 0
-127 -534 0
57 127 534 0
c gate 535 126 -534 0
126 -535 0
-534 -535 0
-126 534 535 0
c gate 536 -533 535 0
-533 -536 0
535 -536 0
533 -535 536 0
c gate 537 -532 -536 0
-532 -537 0
-536 -537 0
532 536 537 0
c gate 538 129 -537 0
129 -538 0
-537 -538 0
-129 537 538 0
c gate 539 -63 127 0
-63 -539 0
127 -539 0
63 -127 539 0
c gate 540 -65 -127 0
-65 -540 0
-127 -540 0
65 127 540 0
c gate 541 -539 -540 0
-539 -541 0
-540 -541 0
539 540 541 0
c gate 542 126 -541 0
126 -542 0
-541 -542 0
-126 541 542 0
c gate 543 -64 127 0
-64 -543 0
127 -543 0
64 -127 543 0
c gate 544 -66 -127 0
-66 -544 0
-127 -544 0
66 127 544 0
c gate 545 -543 -544 0
-543 -545 0
-544 -545 0
543 544 545 0
c gate 546 -126 -545 0
-126 -546 0
-545 -546 0
126 545 546 0
c gate 547 -129 -546 0
-129 -547 0
-546 -547 0
129 546 547 0
c gate 548 -542 547 0
-542 -548 0
547 -548 0
542 -547 548 0
c gate 549 -538 -548 0
-538 -549 0
-548 -549 0
538 548 549 0
c gate 550 -128 -549 0
-128 -550 0
-549 -550 0
128 549 550 0
c gate 551 54 -127 0
54 -551 0
-127 -551 0
-54 127 551 0
c gate 552 52 127 0
52 -552 0
127 -552 0
-52 -127 552 0
c gate 553 -126 -552 0
-126 -553 0
-552 -553 0
126 552 553 0
c gate 554 -551 553 0
-551 -554 0
553 -554 0
551 -553 554 0
c gate 555 51 127 0
51 -555 0
127 -555 0
-51 -127 555 0
c gate 556 53 -127 0
53 -556 0
-127 -556 0
-53 127 556 0
c gate 557 126 -556 0
126 -557 0
-556 -557 0
-126 556 557 0
c gate 558 -555 557 0
-555 -558 0
557 -558 0
555 -557 558 0
c gate 559 -554 -558 0
-554 -559 0
-558 -559 0
554 558 559 0
c gate 560 129 -559 0
129 -560 0
-559 -560 0
-129 559 560 0
c gate 561 61 -127 0
61 -561 0
-127 -561 0
-61 127 561 0
c gate 562 59 127 0
59 -562 0
127 -562 0
-59 -127 562 0
c gate 563 126 -562 0
126 -563 0
-562 -563 0
-126 562 563 0
c gate 564 -561 563 0
-561 -564 0
563 -564 0
561 -563 564 0
c gate 565 60 127 0
60 -565 0
127 -565 0
-60 -127 565 0
c gate 566 62 -127 0
62 -566 0
-127 -566 0
-62 127 566 0
c gate 567 -126 -566 0
-126 -567 0
-566 -567 0
126 566 567 0
c gate 568 -565 567 0
-565 -568 0
567 -568 0
565 -567 568 0
c gate 569 -564 -568 0
-564 -569 0
-568 -569 0
564 568 569 0
c gate 570 -129 -569 0
-129 -570 0
-569 -570 0
129 569 570 0
c gate 571 128 -570 0
128 -571 0
-570 -571 0
-128 570 571 0
c gate 572 -560 571 0
-560 -572 0
571 -572 0
560 -571 572 0
c gate 573 -550 -572 0
-550 -573 0
-572 -573 0
550 572 573 0
c gate 574 -131 -573 0
-131 -574 0
-573 -574 0
131 573 574 0
c gate 575 -129 -141 0
-129 -575 0
-141 -575 0
129 141 575 0
c gate 576 19 127 0
19 -576 0
127 -576 0
-19 -127 576 0
c gate 577 21 -127 0
21 -577 0
-127 -577 0
-21 127 577 0
c gate 578 126 -577 0
126 -578 0
-577 -578 0
-126 577 578 0
c gate 579 -576 578 0
-576 -579 0
578 -579 0
576 -578 579 0
c gate 580 20 127 0
20 -580 0
127 -580 0
-20 -127 580 0
c gate 581 22 -127 0
22 -581 0
-127 -581 0
-22 127 581 0
c gate 582 -126 -581 0
-126 -582 0
-581 -582 0
126 581 582 0
c gate 583 -580 582 0
-580 -583 0
582 -583 0
580 -582 583 0
c gate 584 -579 -583 0
-579 -584 0
-583 -584 0
579 583 584 0
c gate 585 129 -584 0
129 -585 0
-584 -585 0
-129 584 585 0
c gate 586 -575 -585 0
-575 -586 0
-585 -586 0
575 585 586 0
c gate 587 128 -586 0
128 -587 0
-586 -587 0
-128 586 587 0
c gate 588 -128 -175 0
-128 -588 0
-175 -588 0
128 175 588 0
c gate 589 131 -588 0
131 -589 0
-588 -589 0
-131 588 589 0
c gate 590 -587 589 0
-587 -590 0
589 -590 0
587 -589 590 0
c gate 591 -574 -590 0
-574 -591 0
-590 -591 0
574 590 591 0
c gate 592 130 -591 0
130 -592 0
-591 -592 0
-130 591 592 0
c gate 593 132 592 0
132 -593 0
592 -593 0
-132 -592 593 0
c gate 594 -528 -593 0
-528 -594 0
-593 -594 0
528 593 594 0
c gate 595 -527 594 0
-527 -595 0
594 -595 0
527 -594 595 0
c gate 596 105 127 0
105 -596 0
127 -596 0
-105 -127 596 0
c gate 597 107 -127 0
107 -597 0
-127 -597 0
-107 127 597 0
c gate 598 -126 -597 0
-126 -598 0
-597 -598 0
126 597 598 0
c gate 599 -596 598 0
-596 -599 0
598 -599 0
596 -598 599 0
c gate 600 -106 -127 0
-106 -600 0
-127 -600 0
106 127 600 0
c gate 601 -104 127 0
-104 -601 0
127 -601 0
104 -127 601 0
c gate 602 -600 -601 0
-600 -602 0
-601 -602 0
600 601 602 0
c gate 603 126 -602 0
126 -603 0
-602 -603 0
-126 602 603 0
c gate 604 129 -603 0
129 -604 0
-603 -604 0
-129 603 604 0
c gate 605 -599 604 0
-599 -605 0
604 -605 0
599 -604 605 0
c gate 606 114 -127 0
114 -606 0
-127 -606 0
-114 127 606 0
c gate 607 112 127 0
112 -607 0
127 -607 0
-112 -127 607 0
c gate 608 126 -607 0
126 -608 0
-607 -608 0
-126 607 608 0
c gate 609 -606 608 0
-606 -609 0
608 -609 0
606 -608 609 0
c gate 610 -126 416 0
-126 -610 0
416 -610 0
126 -416 610 0
c gate 611 -129 -610 0
-129 -611 0
-610 -611 0
129 610 611 0
c gate 612 -609 611 0
-609 -612 0
611 -612 0
609 -611 612 0
c gate 613 -605 -612 0
-605 -613 0
-612 -613 0
605 612 613 0
c gate 614 128 -613 0
128 -614 0
-613 -614 0
-128 613 614 0
c gate 615 109 127 0
109 -615 0
127 -615 0
-109 -127 615 0
c gate 616 111 -127 0
111 -616 0
-127 -616 0
-111 127 616 0
c gate 617 -126 -616 0
-126 -617 0
-616 -617 0
126 616 617 0
c gate 618 -615 617 0
-615 -618 0
617 -618 0
615 -617 618 0
c gate 619 -110 -127 0
-110 -619 0
-127 -619 0
110 127 619 0
c gate 620 -108 127 0
-108 -620 0
127 -620 0
108 -127 620 0
c gate 621 -619 -620 0
-619 -621 0
-620 -621 0
619 620 621 0
c gate 622 126 -621 0
126 -622 0
-621 -622 0
-126 621 622 0
c gate 623 129 -622 0
129 -623 0
-622 -623 0
-129 622 623 0
c gate 624 -618 623 0
-618 -624 0
623 -624 0
618 -623 624 0
c gate 625 118 -127 0
118 -625 0
-127 -625 0
-118 127 625 0
c gate 626 116 127 0
116 -626 0
127 -626 0
-116 -127 626 0
c gate 627 126 -626 0
126 -627 0
-626 -627 0
-126 626 627 0
c gate 628 -625 627 0
-625 -628 0
627 -628 0
625 -627 628 0
c gate 629 -126 431 0
-126 -629 0
431 -629 0
126 -431 629 0
c gate 630 -129 -629 0
-129 -630 0
-629 -630 0
129 629 630 0
c gate 631 -628 630 0
-628 -631 0
630 -631 0
628 -630 631 0
c gate 632 -624 -631 0
-624 -632 0
-631 -632 0
624 631 632 0
c gate 633 -128 -632 0
-128 -633 0
-632 -633 0
128 632 633 0
c gate 634 131 -633 0
131 -634 0
-633 -634 0
-131 633 634 0
c gate 635 -614 634 0
-614 -635 0
634 -635 0
614 -634 635 0
c gate 636 -131 494 0
-131 -636 0
494 -636 0
131 -494 636 0
c gate 637 130 -636 0
130 -637 0
-636 -637 0
-130 636 637 0
c gate 638 -635 637 0
-635 -638 0
637 -638 0
635 -637 638 0
c gate 639 -132 638 0
-132 -639 0
638 -639 0
132 -638 639 0
c gate 640 595 -639 0
595 -640 0
-639 -640 0
-595 639 640 0
c gate 641 -103 127 0
-103 -641 0
127 -641 0
103 -127 641 0
c gate 642 -105 -127 0
-105 -642 0
-127 -642 0
105 127 642 0
c gate 643 126 -642 0
126 -643 0
-642 -643 0
-126 642 643 0
c gate 644 -641 643 0
-641 -644 0
643 -644 0
641 -643 644 0
c gate 645 -126 602 0
-126 -645 0
602 -645 0
126 -602 645 0
c gate 646 -129 -645 0
-129 -646 0
-645 -646 0
129 645 646 0
c gate 647 -644 646 0
-644 -647 0
646 -647 0
644 -646 647 0
c gate 648 126 339 0
126 -648 0
339 -648 0
-126 -339 648 0
c gate 649 -98 -127 0
-98 -649 0
-127 -649 0
98 127 649 0
c gate 650 -96 127 0
-96 -650 0
127 -650 0
96 -127 650 0
c gate 651 -126 -650 0
-126 -651 0
-650 -651 0
126 650 651 0
c gate 652 -649 651 0
-649 -652 0
651 -652 0
649 -651 652 0
c gate 653 129 -652 0
129 -653 0
-652 -653 0
-129 652 653 0
c gate 654 -648 653 0
-648 -654 0
653 -654 0
648 -653 654 0
c gate 655 -647 -654 0
-647 -655 0
-654 -655 0
647 654 655 0
c gate 656 128 -655 0
128 -656 0
-655 -656 0
-128 655 656 0
c gate 657 126 351 0
126 -657 0
351 -657 0
-126 -351 657 0
c gate 658 -102 -127 0
-102 -658 0
-127 -658 0
102 127 658 0
c gate 659 -100 127 0
-100 -659 0
127 -659 0
100 -127 659 0
c gate 660 -126 -659 0
-126 -660 0
-659 -660 0
126 659 660 0
c gate 661 -658 660 0
-658 -661 0
660 -661 0
658 -660 661 0
c gate 662 129 -661 0
129 -662 0
-661 -662 0
-129 661 662 0
c gate 663 -657 662 0
-657 -663 0
662 -663 0
657 -662 663 0
c gate 664 -107 127 0
-107 -664 0
127 -664 0
107 -127 664 0
c gate 665 -109 -127 0
-109 -665 0
-127 -665 0
109 127 665 0
c gate 666 126 -665 0
126 -666 0
-665 -666 0
-126 665 666 0
c gate 667 -664 666 0
-664 -667 0
666 -667 0
664 -666 667 0
c gate 668 -126 621 0
-126 -668 0
621 -668 0
126 -621 668 0
c gate 669 -129 -668 0
-129 -669 0
-668 -669 0
129 668 669 0
c gate 670 -667 669 0
-667 -670 0
669 -670 0
667 -669 670 0
c gate 671 -663 -670 0
-663 -671 0
-670 -671 0
663 670 671 0
c gate 672 -128 -671 0
-128 -672 0
-671 -672 0
128 671 672 0
c gate 673 -131 -672 0
-131 -673 0
-672 -673 0
131 672 673 0
c gate 674 -656 673 0
-656 -674 0
673 -674 0
656 -673 674 0
c gate 675 -74 -127 0
-74 -675 0
-127 -675 0
74 127 675 0
c gate 676 -72 127 0
-72 -676 0
127 -676 0
72 -127 676 0
c gate 677 126 -676 0
126 -677 0
-676 -677 0
-126 676 677 0
c gate 678 -675 677 0
-675 -678 0
677 -678 0
675 -677 678 0
c gate 679 -126 286 0
-126 -679 0
286 -679 0
126 -286 679 0
c gate 680 -129 -679 0
-129 -680 0
-679 -680 0
129 679 680 0
c gate 681 -678 680 0
-678 -681 0
680 -681 0
678 -680 681 0
c gate 682 126 545 0
126 -682 0
545 -682 0
-126 -545 682 0
c gate 683 -126 276 0
-126 -683 0
276 -683 0
126 -276 683 0
c gate 684 129 -683 0
129 -684 0
-683 -684 0
-129 683 684 0
c gate 685 -682 684 0
-682 -685 0
684 -685 0
682 -684 685 0
c gate 686 -681 -685 0
-681 -686 0
-685 -686 0
681 685 686 0
c gate 687 128 -686 0
128 -687 0
-686 -687 0
-128 686 687 0
c gate 688 -70 -127 0
-70 -688 0
-127 -688 0
70 127 688 0
c gate 689 -68 127 0
-68 -689 0
127 -689 0
68 -127 689 0
c gate 690 126 -689 0
126 -690 0
-689 -690 0
-126 689 690 0
c gate 691 -688 690 0
-688 -691 0
690 -691 0
688 -690 691 0
c gate 692 -126 308 0
-126 -692 0
308 -692 0
126 -308 692 0
c gate 693 129 -692 0
129 -693 0
-692 -693 0
-129 692 693 0
c gate 694 -691 693 0
-691 -694 0
693 -694 0
691 -693 694 0
c gate 695 -78 -127 0
-78 -695 0
-127 -695 0
78 127 695 0
c gate 696 -76 127 0
-76 -696 0
127 -696 0
76 -127 696 0
c gate 697 126 -696 0
126 -697 0
-696 -697 0
-126 696 697 0
c gate 698 -695 697 0
-695 -698 0
697 -698 0
695 -697 698 0
c gate 699 -126 298 0
-126 -699 0
298 -699 0
126 -298 699 0
c gate 700 -129 -699 0
-129 -700 0
-699 -700 0
129 699 700 0
c gate 701 -698 700 0
-698 -701 0
700 -701 0
698 -700 701 0
c gate 702 -694 -701 0
-694 -702 0
-701 -702 0
694 701 702 0
c gate 703 -128 -702 0
-128 -703 0
-702 -703 0
128 702 703 0
c gate 704 131 -703 0
131 -704 0
-703 -704 0
-131 703 704 0
c gate 705 -687 704 0
-687 -705 0
704 -705 0
687 -704 705 0
c gate 706 130 -705 0
130 -706 0
-705 -706 0
-130 705 706 0
c gate 707 -674 706 0
-674 -707 0
706 -707 0
674 -706 707 0
c gate 708 132 707 0
132 -708 0
707 -708 0
-132 -707 708 0
c gate 709 -132 226 0
-132 -709 0
226 -709 0
132 -226 709 0
c gate 710 -708 -709 0
-708 -710 0
-709 -710 0
708 709 710 0
c gate 711 -640 710 0
-640 -711 0
710 -711 0
640 -710 711 0
c gate 712 -526 -711 0
-526 -712 0
-711 -712 0
526 711 712 0
c gate 713 -449 -712 0
-449 -713 0
-712 -713 0
449 712 713 0
c gate 714 -132 592 0
-132 -714 0
592 -714 0
132 -592 714 0
c gate 715 -713 -714 0
-713 -715 0
-714 -715 0
713 714 715 0
c gate 716 -372 -715 0
-372 -716 0
-715 -716 0
372 715 716 0
c gate 717 -322 -716 0
-322 -717 0
-716 -717 0
322 716 717 0
c gate 718 132 638 0
132 -718 0
638 -718 0
-132 -638 718 0
c gate 719 717 -718 0
717 -719 0
-718 -719 0
-717 718 719 0
c gate 720 -227 -719 0
-227 -720 0
-719 -720 0
227 719 720 0
c gate 721 -132 707 0
-132 -721 0
707 -721 0
132 -707 721 0
c gate 722 -132 448 0
-132 -722 0
448 -722 0
132 -448 722 0
c gate 723 -721 -722 0
-721 -723 0
-722 -723 0
721 722 723 0
c gate 724 720 -723 0
720 -724 0
-723 -724 0
-720 723 724 0
c gate 725 -594 -720 0
-594 -725 0
-720 -725 0
594 720 725 0
c gate 726 -724 -725 0
-724 -726 0
-725 -726 0
724 725 726 0
c PO
-726 0
